ALGO = None
EDIFF = 1E-8
ENCUT = 400
GGA = PE
HFSCREEN = 0.2
ISIF = 2
ISMEAR = -5
KPAR = 4
LASPH = .TRUE.
LCHARG = .FALSE.
LHFCALC = .TRUE.
LREAL = .FALSE.
LWAVE = .FALSE.
NBANDS = 64
NELMIN = 0
!NPAR = 1
NSW = 0
PREC = Accurate
SYSTEM = SnS2

LWANNIER90 = .TRUE.
