ALGO = Normal
EDIFF = 1E-8
ENCUT = 400
GGA = PE
ISIF = 2
ISMEAR = -5
KPAR = 8
LASPH = .TRUE.
LCHARG = .FALSE.
LREAL = .FALSE.
LWAVE = .FALSE.
NBANDS = 64
NELMIN = 5
!NPAR = 1
NSW = 0
PREC = Accurate
SYSTEM = SnS2

LWANNIER90 = .TRUE.
