Begin Projections
    Random
End Projections

 num_wann =    64  ! set to NBANDS by VASP

kmesh = 32 32 24

adpt_smr = .true.
smr_type = 'gauss'

dos = .true.
dos_task = 'dos_plot'

begin unit_cell_cart
     3.6510000     0.0000000     0.0000000
    -1.8255000     3.1618590     0.0000000
     0.0000000     0.0000000     6.0150000
end unit_cell_cart

begin atoms_cart
Sn       0.0000000     0.0000000     0.0000000
S        0.0000000     2.1079039     1.4748826
S        1.8254982     1.0539519     4.5401216
end atoms_cart

mp_grid =     6     6     6

begin kpoints
      0.000000000000      0.000000000000      0.000000000000
      0.166666666667     -0.000000000000      0.000000000000
      0.333333333333      0.000000000000      0.000000000000
      0.500000000000     -0.000000000000      0.000000000000
      0.166666666667      0.166666666667      0.000000000000
      0.333333333333      0.166666666667      0.000000000000
      0.333333333333      0.333333333333      0.000000000000
      0.000000000000      0.000000000000      0.166666666667
      0.166666666667     -0.000000000000      0.166666666667
      0.333333333333      0.000000000000      0.166666666667
      0.500000000000     -0.000000000000      0.166666666667
     -0.333333333333     -0.000000000000      0.166666666667
     -0.166666666667      0.000000000000      0.166666666667
      0.166666666667      0.166666666667      0.166666666667
      0.333333333333      0.166666666667      0.166666666667
      0.500000000000      0.166666666667      0.166666666667
      0.333333333333      0.333333333333      0.166666666667
      0.000000000000      0.000000000000      0.333333333333
      0.166666666667     -0.000000000000      0.333333333333
      0.333333333333      0.000000000000      0.333333333333
      0.500000000000     -0.000000000000      0.333333333333
     -0.333333333333     -0.000000000000      0.333333333333
     -0.166666666667      0.000000000000      0.333333333333
      0.166666666667      0.166666666667      0.333333333333
      0.333333333333      0.166666666667      0.333333333333
      0.500000000000      0.166666666667      0.333333333333
      0.333333333333      0.333333333333      0.333333333333
      0.000000000000      0.000000000000      0.500000000000
      0.166666666667     -0.000000000000      0.500000000000
      0.333333333333      0.000000000000      0.500000000000
      0.500000000000     -0.000000000000      0.500000000000
      0.166666666667      0.166666666667      0.500000000000
      0.333333333333      0.166666666667      0.500000000000
      0.333333333333      0.333333333333      0.500000000000
     -0.166666666667      0.000000000000      0.000000000000
     -0.166666666667      0.166666666667      0.000000000000
      0.166666666667     -0.166666666667      0.000000000000
     -0.000000000000     -0.166666666667      0.000000000000
      0.000000000000      0.166666666667      0.000000000000
     -0.333333333333     -0.000000000000      0.000000000000
     -0.333333333333      0.333333333333      0.000000000000
      0.333333333333     -0.333333333333      0.000000000000
      0.000000000000     -0.333333333333      0.000000000000
     -0.000000000000      0.333333333333      0.000000000000
     -0.500000000000      0.500000000000      0.000000000000
     -0.000000000000     -0.500000000000      0.000000000000
     -0.166666666667     -0.166666666667      0.000000000000
     -0.333333333333      0.166666666667      0.000000000000
      0.333333333333     -0.166666666667      0.000000000000
      0.166666666667     -0.333333333333      0.000000000000
     -0.166666666667      0.333333333333      0.000000000000
     -0.333333333333     -0.166666666667      0.000000000000
     -0.500000000000      0.333333333333      0.000000000000
      0.500000000000     -0.333333333333      0.000000000000
      0.166666666667     -0.500000000000      0.000000000000
     -0.166666666667      0.500000000000      0.000000000000
      0.333333333333     -0.500000000000      0.000000000000
     -0.333333333333      0.500000000000      0.000000000000
     -0.500000000000      0.166666666667      0.000000000000
      0.500000000000     -0.166666666667      0.000000000000
      0.166666666667      0.333333333333      0.000000000000
     -0.166666666667     -0.333333333333      0.000000000000
     -0.333333333333     -0.333333333333      0.000000000000
      0.000000000000      0.000000000000     -0.166666666667
     -0.166666666667      0.000000000000     -0.166666666667
     -0.166666666667      0.166666666667      0.166666666667
      0.166666666667     -0.166666666667     -0.166666666667
     -0.000000000000     -0.166666666667      0.166666666667
      0.000000000000      0.166666666667     -0.166666666667
     -0.333333333333     -0.000000000000     -0.166666666667
     -0.333333333333      0.333333333333      0.166666666667
      0.333333333333     -0.333333333333     -0.166666666667
      0.000000000000     -0.333333333333      0.166666666667
     -0.000000000000      0.333333333333     -0.166666666667
     -0.500000000000      0.000000000000     -0.166666666667
     -0.500000000000      0.500000000000      0.166666666667
      0.500000000000     -0.500000000000     -0.166666666667
     -0.000000000000     -0.500000000000      0.166666666667
      0.000000000000      0.500000000000     -0.166666666667
      0.333333333333      0.000000000000     -0.166666666667
      0.333333333333     -0.333333333333      0.166666666667
     -0.333333333333      0.333333333333     -0.166666666667
     -0.000000000000      0.333333333333      0.166666666667
      0.000000000000     -0.333333333333     -0.166666666667
      0.166666666667     -0.000000000000     -0.166666666667
      0.166666666667     -0.166666666667      0.166666666667
     -0.166666666667      0.166666666667     -0.166666666667
      0.000000000000      0.166666666667      0.166666666667
     -0.000000000000     -0.166666666667     -0.166666666667
     -0.166666666667     -0.166666666667     -0.166666666667
     -0.333333333333      0.166666666667      0.166666666667
      0.333333333333     -0.166666666667     -0.166666666667
      0.166666666667     -0.333333333333      0.166666666667
     -0.166666666667      0.333333333333     -0.166666666667
      0.166666666667     -0.333333333333     -0.166666666667
     -0.166666666667      0.333333333333      0.166666666667
     -0.333333333333      0.166666666667     -0.166666666667
      0.333333333333     -0.166666666667      0.166666666667
      0.166666666667      0.166666666667     -0.166666666667
     -0.166666666667     -0.166666666667      0.166666666667
     -0.333333333333     -0.166666666667     -0.166666666667
     -0.500000000000      0.333333333333      0.166666666667
      0.500000000000     -0.333333333333     -0.166666666667
      0.166666666667     -0.500000000000      0.166666666667
     -0.166666666667      0.500000000000     -0.166666666667
      0.333333333333     -0.500000000000     -0.166666666667
     -0.333333333333      0.500000000000      0.166666666667
     -0.500000000000      0.166666666667     -0.166666666667
      0.500000000000     -0.166666666667      0.166666666667
      0.166666666667      0.333333333333     -0.166666666667
     -0.166666666667     -0.333333333333      0.166666666667
     -0.500000000000     -0.166666666667     -0.166666666667
     -0.666666666667      0.500000000000      0.166666666667
      0.666666666667     -0.500000000000     -0.166666666667
      0.166666666667     -0.666666666667      0.166666666667
     -0.166666666667      0.666666666667     -0.166666666667
      0.500000000000     -0.666666666667     -0.166666666667
     -0.500000000000      0.666666666667      0.166666666667
     -0.666666666667      0.166666666667     -0.166666666667
      0.666666666667     -0.166666666667      0.166666666667
      0.166666666667      0.500000000000     -0.166666666667
     -0.166666666667     -0.500000000000      0.166666666667
     -0.333333333333     -0.333333333333     -0.166666666667
      0.333333333333     -0.666666666667     -0.166666666667
     -0.333333333333      0.666666666667      0.166666666667
      0.000000000000      0.000000000000     -0.333333333333
     -0.166666666667      0.000000000000     -0.333333333333
     -0.166666666667      0.166666666667      0.333333333333
      0.166666666667     -0.166666666667     -0.333333333333
     -0.000000000000     -0.166666666667      0.333333333333
      0.000000000000      0.166666666667     -0.333333333333
     -0.333333333333     -0.000000000000     -0.333333333333
     -0.333333333333      0.333333333333      0.333333333333
      0.333333333333     -0.333333333333     -0.333333333333
      0.000000000000     -0.333333333333      0.333333333333
     -0.000000000000      0.333333333333     -0.333333333333
     -0.500000000000      0.000000000000     -0.333333333333
     -0.500000000000      0.500000000000      0.333333333333
      0.500000000000     -0.500000000000     -0.333333333333
     -0.000000000000     -0.500000000000      0.333333333333
      0.000000000000      0.500000000000     -0.333333333333
      0.333333333333      0.000000000000     -0.333333333333
      0.333333333333     -0.333333333333      0.333333333333
     -0.333333333333      0.333333333333     -0.333333333333
     -0.000000000000      0.333333333333      0.333333333333
      0.000000000000     -0.333333333333     -0.333333333333
      0.166666666667     -0.000000000000     -0.333333333333
      0.166666666667     -0.166666666667      0.333333333333
     -0.166666666667      0.166666666667     -0.333333333333
      0.000000000000      0.166666666667      0.333333333333
     -0.000000000000     -0.166666666667     -0.333333333333
     -0.166666666667     -0.166666666667     -0.333333333333
     -0.333333333333      0.166666666667      0.333333333333
      0.333333333333     -0.166666666667     -0.333333333333
      0.166666666667     -0.333333333333      0.333333333333
     -0.166666666667      0.333333333333     -0.333333333333
      0.166666666667     -0.333333333333     -0.333333333333
     -0.166666666667      0.333333333333      0.333333333333
     -0.333333333333      0.166666666667     -0.333333333333
      0.333333333333     -0.166666666667      0.333333333333
      0.166666666667      0.166666666667     -0.333333333333
     -0.166666666667     -0.166666666667      0.333333333333
     -0.333333333333     -0.166666666667     -0.333333333333
     -0.500000000000      0.333333333333      0.333333333333
      0.500000000000     -0.333333333333     -0.333333333333
      0.166666666667     -0.500000000000      0.333333333333
     -0.166666666667      0.500000000000     -0.333333333333
      0.333333333333     -0.500000000000     -0.333333333333
     -0.333333333333      0.500000000000      0.333333333333
     -0.500000000000      0.166666666667     -0.333333333333
      0.500000000000     -0.166666666667      0.333333333333
      0.166666666667      0.333333333333     -0.333333333333
     -0.166666666667     -0.333333333333      0.333333333333
     -0.500000000000     -0.166666666667     -0.333333333333
     -0.666666666667      0.500000000000      0.333333333333
      0.666666666667     -0.500000000000     -0.333333333333
      0.166666666667     -0.666666666667      0.333333333333
     -0.166666666667      0.666666666667     -0.333333333333
      0.500000000000     -0.666666666667     -0.333333333333
     -0.500000000000      0.666666666667      0.333333333333
     -0.666666666667      0.166666666667     -0.333333333333
      0.666666666667     -0.166666666667      0.333333333333
      0.166666666667      0.500000000000     -0.333333333333
     -0.166666666667     -0.500000000000      0.333333333333
     -0.333333333333     -0.333333333333     -0.333333333333
      0.333333333333     -0.666666666667     -0.333333333333
     -0.333333333333      0.666666666667      0.333333333333
     -0.166666666667      0.000000000000     -0.500000000000
     -0.166666666667      0.166666666667      0.500000000000
      0.166666666667     -0.166666666667     -0.500000000000
     -0.000000000000     -0.166666666667      0.500000000000
      0.000000000000      0.166666666667     -0.500000000000
     -0.333333333333     -0.000000000000     -0.500000000000
     -0.333333333333      0.333333333333      0.500000000000
      0.333333333333     -0.333333333333     -0.500000000000
      0.000000000000     -0.333333333333      0.500000000000
     -0.000000000000      0.333333333333     -0.500000000000
     -0.500000000000      0.500000000000      0.500000000000
     -0.000000000000     -0.500000000000      0.500000000000
     -0.166666666667     -0.166666666667     -0.500000000000
     -0.333333333333      0.166666666667      0.500000000000
      0.333333333333     -0.166666666667     -0.500000000000
      0.166666666667     -0.333333333333      0.500000000000
     -0.166666666667      0.333333333333     -0.500000000000
     -0.333333333333     -0.166666666667     -0.500000000000
     -0.500000000000      0.333333333333      0.500000000000
      0.500000000000     -0.333333333333     -0.500000000000
      0.166666666667     -0.500000000000      0.500000000000
     -0.166666666667      0.500000000000     -0.500000000000
      0.333333333333     -0.500000000000     -0.500000000000
     -0.333333333333      0.500000000000      0.500000000000
     -0.500000000000      0.166666666667     -0.500000000000
      0.500000000000     -0.166666666667      0.500000000000
      0.166666666667      0.333333333333     -0.500000000000
     -0.166666666667     -0.333333333333      0.500000000000
     -0.333333333333     -0.333333333333     -0.500000000000
end kpoints
