ALGO = scGW
EDIFF = 1E-8
ENCUT = 400
GGA = PE
ISIF = 2
ISMEAR = -5
KPAR = 8
LASPH = .TRUE.
LREAL = .FALSE.
NBANDS = 64
NELM = 4 !NELMIN = 5
!NPAR = 1
NSW = 0
PREC = Accurate
SYSTEM = SnS2

LWANNIER90 = .TRUE.
