ALGO = All
EDIFF = 1.0e-8
ENCUT = 500
ISIF = 2
ISMEAR = -5
KPAR = 2
LCHARG = .FALSE.
LREAL = .FALSE.
NBANDS = 16
NEDOS = 2000
!NPAR = 1
PREC = Accurate
SYSTEM = Si

LHFCALC = .TRUE.
HFSCREEN = 0.2

LWANNIER90 = .TRUE.
