Si
5.431
  0.5 0.5 0.0
  0.0 0.5 0.5
  0.5 0.0 0.5
Si
 2
Direct
  0.00 0.00 0.00
  0.25 0.25 0.25
