ALGO = Normal
EDIFF = 1E-8
EDIFFG = -1E-2
ENCUT = 550
GGA = PS
IBRION = 2
ISIF = 2
ISMEAR = 0
IVDW = 11
KPAR = 4
LASPH = .TRUE.
LCHARG = .FALSE.
LREAL = .FALSE.
LWAVE = .FALSE.
NELMIN = 5
NPAR = 1
NSW = 500
PREC = Accurate
SIGMA = 0.01
SYSTEM = SnS2
