SnS2
   1.0
   3.651000  0.000000  0.000000
  -1.825500  3.161859  0.000000
   0.000000  0.000000  6.015000
   Sn   S 
    1   2
Direct
  0.000000  0.000000  0.0000000
  0.333333  0.666666  0.2145598
  0.666666  0.333333  0.7854409
